clingo version 5.1.0
Reading from ASP/config.gringo ...
Solving...
Answer: 1
repair(functionOr(2,temporary(t2))) repair(functionOr(0,temporary(t0)))
Optimization: 2
Answer: 2
repair(functionOr(0,temporary(t0)))
Optimization: 1
Answer: 1
repair(functionOr(0,temporary(t0)))
Optimization: 1
Answer: 2
repair(functionOr(2,temporary(t2)))
Optimization: 1
OPTIMUM FOUND

Models       : 4
  Optimum    : yes
  Optimal    : 2
Optimization : 1
Calls        : 1
